proyfinal/src/viki/013/experimentInOfficeAgust.take6.output/1652c8df-bac6-4870-afa7-ad6acb472205.als.dat
{'cnf.clauses': '118081',
 'cnf.totvars': '69608',
 'conflict literals': '25',
 'conflicts': '13',
 'decisions': '8617',
 'memused.mb': '15.45',
 'outcome': 'UNSAT',
 'propagations': '31739',
 'restarts': '1',
 'solver.msecs': 34,
 'task.msecs': 80}
