proyfinal/src/viki/013/experimentInOfficeAgust.take6.output/1652c8df-bac6-4870-afa7-ad6acb472205.als.out
Reading from standard input... Use '--help' for help.
============================[ Problem Statistics ]=============================
|                                                                             |
|  Number of variables:         69608                                         |
|  Number of clauses:          118081                                         |
|  Parse time:                   0.03 s                                       |
|                                                                             |
============================[ Search Statistics ]==============================
| Conflicts |          ORIGINAL         |          LEARNT          | Progress |
|           |    Vars  Clauses Literals |    Limit  Clauses Lit/Cl |          |
===============================================================================
===============================================================================
restarts              : 1
conflicts             : 13             (379 /sec)
decisions             : 8617           (0.00 % random) (251078 /sec)
propagations          : 31739          (924796 /sec)
conflict literals     : 25             (0.00 % deleted)
Memory used           : 15.45 MB
CPU time              : 0.03432 s

UNSATISFIABLE
